max: 100f0102 + 100f0103 + 100f0104 - 10q1 - 20q2 + 0;
1y0102 + 1z0102 + 3y0103 + 3z0103 + 0y0104 + 0z0104 + 1y0203 + 1z0203 + 0y0205 + 0z0205 + 0y0206 + 0z0206 + 1y0306 + 1z0306 + 2y0403 + 2z0403 + 1y0407 + 1z0407 + 2y0506 + 2z0506 + 2y0508 + 2z0508 + 0y0607 + 0z0607 + 0y0608 + 0z0608 + 0y0709 + 0z0709 + 0y0809 + 0z0809 <= 3q1 + 0q2 + 0;
1y0102 + 1z0102 + 2y0103 + 2z0103 + 1y0104 + 1z0104 + 5y0203 + 5z0203 + 2y0205 + 2z0205 + 2y0206 + 2z0206 + 2y0306 + 2z0306 + 1y0403 + 1z0403 + 1y0407 + 1z0407 + 1y0506 + 1z0506 + 1y0508 + 1z0508 + 1y0607 + 1z0607 + 1y0608 + 1z0608 + 1y0709 + 1z0709 + 1y0809 + 1z0809 <= 2q1 + 6q2 + 0;
5y0102 + 5z0102 + 0y0103 + 0z0103 + 4y0104 + 4z0104 + 0y0203 + 0z0203 + 0y0205 + 0z0205 + 0y0206 + 0z0206 + 2y0306 + 2z0306 + 2y0403 + 2z0403 + 1y0407 + 1z0407 + 0y0506 + 0z0506 + 0y0508 + 0z0508 + 0y0607 + 0z0607 + 0y0608 + 0z0608 + 0y0709 + 0z0709 + 0y0809 + 0z0809 <= 1q1 + 2q2 + 0;

f0102 <= 6;
f0102 >= -6;
f0103 <= 1;
f0103 >= -1;
f0104 <= 10;
f0104 >= -10;
f0203 <= 2;
f0203 >= -2;
f0205 <= 4;
f0205 >= -4;
f0206 <= 1;
f0206 >= -1;
f0306 <= 20;
f0306 >= -20;
f0403 <= 2;
f0403 >= -2;
f0407 <= 5;
f0407 >= -5;
f0506 <= 2;
f0506 >= -2;
f0508 <= 5;
f0508 >= -5;
f0607 <= 6;
f0607 >= -6;
f0608 <= 10;
f0608 >= -10;
f0709 <= 4;
f0709 >= -4;
f0809 <= 12;
f0809 >= -12;

y0102 <= 6;
y0102 >= 0;
z0102 <= 6;
z0102 >= 0;

y0103 <= 1;
y0103 >= 0;
z0103 <= 1;
z0103 >= 0;

y0104 <= 10;
y0104 >= 0;
z0104 <= 10;
z0104 >= 0;

y0203 <= 2;
y0203 >= 0;
z0203 <= 2;
z0203 >= 0;

y0205 <= 4;
y0205 >= 0;
z0205 <= 4;
z0205 >= 0;

y0206 <= 1;
y0206 >= 0;
z0206 <= 1;
z0206 >= 0;

y0306 <= 20;
y0306 >= 0;
z0306 <= 20;
z0306 >= 0;

y0403 <= 2;
y0403 >= 0;
z0403 <= 2;
z0403 >= 0;

y0407 <= 5;
y0407 >= 0;
z0407 <= 5;
z0407 >= 0;

y0506 <= 2;
y0506 >= 0;
z0506 <= 2;
z0506 >= 0;

y0508 <= 5;
y0508 >= 0;
z0508 <= 5;
z0508 >= 0;

y0607 <= 6;
y0607 >= 0;
z0607 <= 6;
z0607 >= 0;

y0608 <= 10;
y0608 >= 0;
z0608 <= 10;
z0608 >= 0;

y0709 <= 4;
y0709 >= 0;
z0709 <= 4;
z0709 >= 0;

y0809 <= 12;
y0809 >= 0;
z0809 <= 12;
z0809 >= 0;

f0102 + 0 = + 0 + f0203 + f0205 + f0206;
f0103 + f0203 + f0403 + 0 = + 0 + f0306;
f0104 + 0 = + 0 + f0403 + f0407;
f0205 + 0 = + 0 + f0506 + f0508;
f0206 + f0306 + f0506 + 0 = + 0 + f0607 + f0608;
f0407 + f0607 + 0 = + 0 + f0709;
f0508 + f0608 + 0 = + 0 + f0809;

f0102 = y0102 - z0102;
f0103 = y0103 - z0103;
f0104 = y0104 - z0104;
f0203 = y0203 - z0203;
f0205 = y0205 - z0205;
f0206 = y0206 - z0206;
f0306 = y0306 - z0306;
f0403 = y0403 - z0403;
f0407 = y0407 - z0407;
f0506 = y0506 - z0506;
f0508 = y0508 - z0508;
f0607 = y0607 - z0607;
f0608 = y0608 - z0608;
f0709 = y0709 - z0709;
f0809 = y0809 - z0809;

q1 >= 0;
q2 >= 0;
